% demand
num_movements = 29;
loading_factor = [1900, 950, 2000, 1350, 800, 950, 1800, 800, 1750, 800, 1400, 1950, 800, 1300, 1100, 1500, 1050, 1250, 2000, 1500, 1750, 1850, 1100, 950, 1850, 1250, 850, 1800, 1250];
pickup_time = [0, 0, 1, 1, 2, 2, 2, 4, 4, 4, 4, 5, 5, 7, 7, 7, 7, 8, 8, 8, 8, 10, 11, 11, 11, 11, 12, 12, 12];
delivery_time = [2, 1, 3, 4, 4, 4, 4, 5, 7, 5, 5, 6, 6, 8, 8, 8, 8, 9, 10, 9, 10, 12, 12, 12, 13, 13, 13, 13, 13];

% transporter definition
total_capacity = 7000;
num_decks = 3;
capacity = [3000, 1000, 3000];

% ways out of decks
num_ways_out = 1;
paths_out = array3d(decks, ways_out, decks, [
% ways out of deck d1
2, 3, 0, 

% ways out of deck d2
3, 0, 0, 

% ways out of deck d3
0, 0, 0,	

]);

